# Solution for model Master Problem
# Objective value = 5.5906661699096821e+02
theta[1] 0
theta[2] 0
theta[3] 0
theta[4] 0
theta[5] 0
theta[6] 0
theta[7] 0
theta[8] 0
theta[9] 0
theta[10] 0
theta[11] 0
theta[12] 0
theta[13] 0
theta[14] 0
theta[15] 0
theta[16] 0
theta[17] 0
theta[18] 0
theta[19] 0
theta[20] 0
theta[21] 6.6666666666666763e-02
theta[22] 0
theta[23] 0
theta[24] 0
theta[25] 0
theta[26] 0
theta[27] 0
theta[28] 0
theta[29] 6.5333333333333343e-01
theta[30] 0
theta[31] 0
theta[32] 6.6666666666666569e-02
theta[33] 0
theta[34] 6.5333333333333343e-01
theta[35] 0
theta[36] 0.28
theta[37] 3.0666666666666675e-01
theta[38] 0
theta[39] 0
theta[40] 1.1999999999999966e-01
theta[41] 0
theta[42] 5.7333333333333347e-01
theta[43] 0.28
theta[44] 1.3333333333333308e-01
theta[45] 1.4666666666666664e-01
theta[46] 0
theta[47] 8.0000000000000182e-02
theta[48] 0
theta[49] 1.4666666666666661e-01
theta[50] 4.5333333333333320e-01
theta[51] 1.3333333333333336e-01
theta[52] 0
theta[53] 1.9999999999999993e-01
theta[54] 2.4000000000000005e-01
theta[55] 2.6666666666666639e-01
theta[56] 7.9999999999999780e-02
theta[57] 8.0000000000000182e-02
theta[58] 8.0000000000000182e-02
theta[59] 1.0666666666666696e-01
theta[60] 6.6666666666666818e-02
